NAME : ct_7_n_4_k10_t_99
COMMENT : (ct_7_n_4_k10_t_99, Min no of trucks: 4, Optimal value: 112.63751809412801, Split: Yes)
TYPE : SDVRP
DIMENSION : 8
EDGE_WEIGHT_TYPE : EUC_2D
CAPACITY : 10
NODE_COORD_SECTION
1 0 0
2 2 4
3 8 1
4 -1 -10
5 -5 -6
6 -7 5
7 10 -6
8 -11 -5
DEMAND_SECTION
1 0
2 5.6
3 7.0
4 4.2
5 3.7
6 5.1
7 7.6
8 6.5
DEPOT_SECTION
 1
EOF